M = 6;
N = 11;
E = 90;
l = [190, 185, 185, 190, 195, 185];
p = [11, 11, 23, 16, 2, 1, 24, 14, 20];
from = [10, 10, 10, 10, 10, 10, 10, 10, 10, 1, 1, 1, 1, 1, 1, 1, 1, 1, 2, 2, 2, 2, 2, 2, 2, 2, 2, 3, 3, 3, 3, 3, 3, 3, 3, 3, 4, 4, 4, 4, 4, 4, 4, 4, 4, 5, 5, 5, 5, 5, 5, 5, 5, 5, 6, 6, 6, 6, 6, 6, 6, 6, 6, 7, 7, 7, 7, 7, 7, 7, 7, 7, 8, 8, 8, 8, 8, 8, 8, 8, 8, 9, 9, 9, 9, 9, 9, 9, 9, 9];
to = [1, 2, 3, 4, 5, 6, 7, 8, 9, 2, 3, 4, 5, 6, 7, 8, 9, 11, 1, 3, 4, 5, 6, 7, 8, 9, 11, 1, 2, 4, 5, 6, 7, 8, 9, 11, 1, 2, 3, 5, 6, 7, 8, 9, 11, 1, 2, 3, 4, 6, 7, 8, 9, 11, 1, 2, 3, 4, 5, 7, 8, 9, 11, 1, 2, 3, 4, 5, 6, 8, 9, 11, 1, 2, 3, 4, 5, 6, 7, 9, 11, 1, 2, 3, 4, 5, 6, 7, 8, 11];
w = [87, 113, 32, 94, 94, 96, 58, 87, 66, 199, 119, 28, 179, 77, 145, 61, 123, 87, 199, 81, 206, 38, 122, 55, 138, 76, 113, 119, 81, 126, 69, 121, 26, 117, 91, 32, 28, 206, 126, 186, 84, 152, 68, 130, 94, 169, 38, 79, 176, 92, 58, 108, 46, 98, 77, 122, 121, 84, 102, 100, 16, 46, 96, 145, 55, 26, 152, 58, 100, 91, 70, 58, 61, 138, 113, 68, 118, 16, 91, 62, 87, 123, 76, 91, 130, 56, 46, 70, 62, 66];
